# Random Circle Problem
param d := 0.05; 
param n := 10; 
param radius := 2.00; 
param v0 := 
1 5.89
2 5.30
3 5.84
4 5.57
5 5.70
6 5.86
7 4.87
8 5.10
9 5.24
10 5.70
;
param cap := 
1 3.04008
2 3.83074
3 4.12560
4 5.30448
5 5.95665
6 6.04022
7 0.98732
8 1.04926
9 2.26338
10 2.84378
;
param x0 := 
1 2.00
2 1.62
3 0.62
4 -0.62
5 -1.62
6 -2.00
7 -1.62
8 -0.62
9 0.62
10 1.62
;
param y0 := 
1 -0.00
2 1.18
3 1.90
4 1.90
5 1.18
6 0.00
7 -1.18
8 -1.90
9 -1.90
10 -1.18
;
